sat
(:added-eqs                   48602
 :arith-eq-adapter            811
 :arith-bound-propagations-lp 3798
 :arith-conflicts             23
 :arith-diseq                 2159
 :arith-fixed-eqs             2751
 :arith-lower                 4290
 :arith-make-feasible         2707
 :arith-max-columns           456
 :arith-max-rows              188
 :arith-offset-eqs            443
 :arith-upper                 4577
 :binary-propagations         227435
 :conflicts                   1242
 :decisions                   46188
 :del-clause                  1589
 :elim-unconstrained          2
 :final-checks                1
 :max-memory                  25.08
 :memory                      20.69
 :minimized-lits              2171
 :mk-bool-var                 5536
 :mk-clause                   3870
 :mk-clause-binary            7366
 :num-allocs                  6764952
 :num-checks                  1
 :propagations                292261
 :restarts                    11
 :rlimit-count                6150446
 :time                        1.28
 :total-time                  1.41)
